<?xml version="1.0" encoding="UTF-8"?><osil xmlns="os.optimizationservices.org"   xmlns:xsi="http://www.w3.org/2001/XMLSchema-instance" xsi:schemaLocation="os.optimizationservices.org http://www.optimizationservices.org/schemas/2.0/OSiL.xsd" ><instanceHeader><name>q_50_0_25_3</name></instanceHeader><instanceData><variables numberOfVariables="50"><var name="x1" ub="1"/><var name="x2" ub="1"/><var name="x3" ub="1"/><var name="x4" ub="1"/><var name="x5" ub="1"/><var name="x6" ub="1"/><var name="x7" ub="1"/><var name="x8" ub="1"/><var name="x9" ub="1"/><var name="x10" ub="1"/><var name="x11" ub="1"/><var name="x12" ub="1"/><var name="x13" ub="1"/><var name="x14" ub="1"/><var name="x15" ub="1"/><var name="x16" ub="1"/><var name="x17" ub="1"/><var name="x18" ub="1"/><var name="x19" ub="1"/><var name="x20" ub="1"/><var name="x21" ub="1"/><var name="x22" ub="1"/><var name="x23" ub="1"/><var name="x24" ub="1"/><var name="x25" ub="1"/><var name="x26" ub="1"/><var name="x27" ub="1"/><var name="x28" ub="1"/><var name="x29" ub="1"/><var name="x30" ub="1"/><var name="x31" ub="1"/><var name="x32" ub="1"/><var name="x33" ub="1"/><var name="x34" ub="1"/><var name="x35" ub="1"/><var name="x36" ub="1"/><var name="x37" ub="1"/><var name="x38" ub="1"/><var name="x39" ub="1"/><var name="x40" ub="1"/><var name="x41" ub="1"/><var name="x42" ub="1"/><var name="x43" ub="1"/><var name="x44" ub="1"/><var name="x45" ub="1"/><var name="x46" ub="1"/><var name="x47" ub="1"/><var name="x48" ub="1"/><var name="x49" ub="1"/><var name="x50" ub="1"/></variables><objectives numberOfObjectives="1"><obj maxOrMin="min" name="defObj_x51" numberOfObjCoef="50"><coef idx="0">-.2652</coef><coef idx="1">-.7416</coef><coef idx="2">.3104</coef><coef idx="3">.5838</coef><coef idx="4">-.2481</coef><coef idx="5">-.5737</coef><coef idx="6">.1995</coef><coef idx="7">.7254</coef><coef idx="8">-.6076</coef><coef idx="9">.2583</coef><coef idx="10">.3748</coef><coef idx="11">-.821</coef><coef idx="12">-.7231</coef><coef idx="13">.792</coef><coef idx="14">.1935</coef><coef idx="15">.3677</coef><coef idx="16">-.3893</coef><coef idx="17">-.5531</coef><coef idx="18">.3063</coef><coef idx="19">-.3756</coef><coef idx="20">.9983</coef><coef idx="21">-.4544</coef><coef idx="22">.8651</coef><coef idx="23">.8738</coef><coef idx="24">.7123</coef><coef idx="25">-.789</coef><coef idx="26">-.9015</coef><coef idx="27">.8536</coef><coef idx="28">-.6222</coef><coef idx="29">.531</coef><coef idx="30">-.7534</coef><coef idx="31">.1807</coef><coef idx="32">.8496</coef><coef idx="33">7.91e-2</coef><coef idx="34">.8057</coef><coef idx="35">-.81</coef><coef idx="36">.7906</coef><coef idx="37">-.4133</coef><coef idx="38">.6907</coef><coef idx="39">9.63e-2</coef><coef idx="40">-.2825</coef><coef idx="41">3.54e-2</coef><coef idx="42">.5125</coef><coef idx="43">.9351</coef><coef idx="44">.7973</coef><coef idx="45">-.8916</coef><coef idx="46">-.7597</coef><coef idx="47">.2381</coef><coef idx="48">7.7e-3</coef><coef idx="49">.3442</coef></obj></objectives><quadraticCoefficients  numberOfQuadraticTerms="318" ><qTerm  idx="-1"  idxOne="0"  idxTwo="8"  coef="-1.2476"/><qTerm  idx="-1"  idxOne="0"  idxTwo="14"  coef="-1.0352"/><qTerm  idx="-1"  idxOne="0"  idxTwo="16"  coef="1.3471"/><qTerm  idx="-1"  idxOne="0"  idxTwo="17"  coef="1.9573"/><qTerm  idx="-1"  idxOne="0"  idxTwo="19"  coef="-.2972"/><qTerm  idx="-1"  idxOne="0"  idxTwo="24"  coef="5.88e-2"/><qTerm  idx="-1"  idxOne="0"  idxTwo="48"  coef=".8711"/><qTerm  idx="-1"  idxOne="1"  idxTwo="17"  coef=".758"/><qTerm  idx="-1"  idxOne="1"  idxTwo="18"  coef="-8.6e-3"/><qTerm  idx="-1"  idxOne="1"  idxTwo="19"  coef="1.9627"/><qTerm  idx="-1"  idxOne="1"  idxTwo="20"  coef="-1.6766"/><qTerm  idx="-1"  idxOne="1"  idxTwo="26"  coef=".8083"/><qTerm  idx="-1"  idxOne="1"  idxTwo="27"  coef="1.4765"/><qTerm  idx="-1"  idxOne="1"  idxTwo="29"  coef="-.8961"/><qTerm  idx="-1"  idxOne="1"  idxTwo="39"  coef="1.4011"/><qTerm  idx="-1"  idxOne="1"  idxTwo="41"  coef="-1.8419"/><qTerm  idx="-1"  idxOne="1"  idxTwo="43"  coef="1.9849"/><qTerm  idx="-1"  idxOne="1"  idxTwo="44"  coef="-1.2467"/><qTerm  idx="-1"  idxOne="1"  idxTwo="45"  coef="-.3441"/><qTerm  idx="-1"  idxOne="1"  idxTwo="48"  coef="1.8035"/><qTerm  idx="-1"  idxOne="1"  idxTwo="49"  coef=".9842"/><qTerm  idx="-1"  idxOne="2"  idxTwo="6"  coef="-.3782"/><qTerm  idx="-1"  idxOne="2"  idxTwo="7"  coef="-.2406"/><qTerm  idx="-1"  idxOne="2"  idxTwo="8"  coef="-.6486"/><qTerm  idx="-1"  idxOne="2"  idxTwo="9"  coef="-1.4694"/><qTerm  idx="-1"  idxOne="2"  idxTwo="24"  coef="-1.6597"/><qTerm  idx="-1"  idxOne="2"  idxTwo="26"  coef="-1.8128"/><qTerm  idx="-1"  idxOne="2"  idxTwo="27"  coef=".9673"/><qTerm  idx="-1"  idxOne="2"  idxTwo="33"  coef="-1.6863"/><qTerm  idx="-1"  idxOne="2"  idxTwo="37"  coef="1.3042"/><qTerm  idx="-1"  idxOne="3"  idxTwo="13"  coef="1.6475"/><qTerm  idx="-1"  idxOne="3"  idxTwo="14"  coef=".4627"/><qTerm  idx="-1"  idxOne="3"  idxTwo="15"  coef="-.6004"/><qTerm  idx="-1"  idxOne="3"  idxTwo="19"  coef="1.4361"/><qTerm  idx="-1"  idxOne="3"  idxTwo="26"  coef=".4301"/><qTerm  idx="-1"  idxOne="3"  idxTwo="30"  coef="1.5311"/><qTerm  idx="-1"  idxOne="3"  idxTwo="31"  coef=".2754"/><qTerm  idx="-1"  idxOne="3"  idxTwo="32"  coef=".465"/><qTerm  idx="-1"  idxOne="3"  idxTwo="33"  coef="1.2968"/><qTerm  idx="-1"  idxOne="3"  idxTwo="34"  coef="-.1364"/><qTerm  idx="-1"  idxOne="3"  idxTwo="40"  coef="1.5537"/><qTerm  idx="-1"  idxOne="3"  idxTwo="45"  coef=".3429"/><qTerm  idx="-1"  idxOne="4"  idxTwo="14"  coef="1.4468"/><qTerm  idx="-1"  idxOne="4"  idxTwo="16"  coef="1.6899"/><qTerm  idx="-1"  idxOne="4"  idxTwo="20"  coef=".7028"/><qTerm  idx="-1"  idxOne="4"  idxTwo="21"  coef="-1.8216"/><qTerm  idx="-1"  idxOne="4"  idxTwo="24"  coef=".3392"/><qTerm  idx="-1"  idxOne="4"  idxTwo="26"  coef="1.2302"/><qTerm  idx="-1"  idxOne="4"  idxTwo="27"  coef="-1.8168"/><qTerm  idx="-1"  idxOne="4"  idxTwo="28"  coef="1.7263"/><qTerm  idx="-1"  idxOne="4"  idxTwo="32"  coef="-1.3043"/><qTerm  idx="-1"  idxOne="4"  idxTwo="37"  coef="-.6914"/><qTerm  idx="-1"  idxOne="4"  idxTwo="38"  coef=".6137"/><qTerm  idx="-1"  idxOne="4"  idxTwo="45"  coef="-1.5402"/><qTerm  idx="-1"  idxOne="4"  idxTwo="48"  coef="1.3215"/><qTerm  idx="-1"  idxOne="5"  idxTwo="5"  coef=".9525"/><qTerm  idx="-1"  idxOne="5"  idxTwo="8"  coef="-1.855"/><qTerm  idx="-1"  idxOne="5"  idxTwo="9"  coef=".3783"/><qTerm  idx="-1"  idxOne="5"  idxTwo="15"  coef="-1.5046"/><qTerm  idx="-1"  idxOne="5"  idxTwo="16"  coef="1.06e-2"/><qTerm  idx="-1"  idxOne="5"  idxTwo="23"  coef=".4751"/><qTerm  idx="-1"  idxOne="5"  idxTwo="24"  coef="-1.0224"/><qTerm  idx="-1"  idxOne="5"  idxTwo="25"  coef="-1.42e-2"/><qTerm  idx="-1"  idxOne="5"  idxTwo="27"  coef="1.9682"/><qTerm  idx="-1"  idxOne="5"  idxTwo="32"  coef="1.7284"/><qTerm  idx="-1"  idxOne="5"  idxTwo="34"  coef="-.7397"/><qTerm  idx="-1"  idxOne="5"  idxTwo="35"  coef="-.6635"/><qTerm  idx="-1"  idxOne="5"  idxTwo="39"  coef=".849"/><qTerm  idx="-1"  idxOne="5"  idxTwo="40"  coef="1.46e-2"/><qTerm  idx="-1"  idxOne="5"  idxTwo="44"  coef=".866"/><qTerm  idx="-1"  idxOne="5"  idxTwo="47"  coef="-.9217"/><qTerm  idx="-1"  idxOne="6"  idxTwo="16"  coef="-1.6581"/><qTerm  idx="-1"  idxOne="6"  idxTwo="18"  coef=".3047"/><qTerm  idx="-1"  idxOne="6"  idxTwo="27"  coef="1.4998"/><qTerm  idx="-1"  idxOne="6"  idxTwo="29"  coef="1.9059"/><qTerm  idx="-1"  idxOne="6"  idxTwo="33"  coef="-8.74e-2"/><qTerm  idx="-1"  idxOne="6"  idxTwo="37"  coef="-1.5886"/><qTerm  idx="-1"  idxOne="6"  idxTwo="41"  coef="1.884"/><qTerm  idx="-1"  idxOne="6"  idxTwo="45"  coef="1.5146"/><qTerm  idx="-1"  idxOne="7"  idxTwo="10"  coef="-.8221"/><qTerm  idx="-1"  idxOne="7"  idxTwo="30"  coef="-.5041"/><qTerm  idx="-1"  idxOne="7"  idxTwo="32"  coef="-.2279"/><qTerm  idx="-1"  idxOne="7"  idxTwo="34"  coef="1.2816"/><qTerm  idx="-1"  idxOne="7"  idxTwo="37"  coef="-1.0809"/><qTerm  idx="-1"  idxOne="7"  idxTwo="39"  coef="-1.9679"/><qTerm  idx="-1"  idxOne="7"  idxTwo="42"  coef=".4055"/><qTerm  idx="-1"  idxOne="7"  idxTwo="43"  coef=".7605"/><qTerm  idx="-1"  idxOne="7"  idxTwo="45"  coef="-1.1187"/><qTerm  idx="-1"  idxOne="7"  idxTwo="46"  coef="1.6305"/><qTerm  idx="-1"  idxOne="7"  idxTwo="48"  coef="1.1625"/><qTerm  idx="-1"  idxOne="8"  idxTwo="8"  coef="-.4274"/><qTerm  idx="-1"  idxOne="8"  idxTwo="16"  coef="-.3829"/><qTerm  idx="-1"  idxOne="8"  idxTwo="21"  coef=".5911"/><qTerm  idx="-1"  idxOne="8"  idxTwo="25"  coef="-1.3991"/><qTerm  idx="-1"  idxOne="8"  idxTwo="27"  coef="-1.323"/><qTerm  idx="-1"  idxOne="8"  idxTwo="31"  coef="-1.8866"/><qTerm  idx="-1"  idxOne="8"  idxTwo="33"  coef="-1.5569"/><qTerm  idx="-1"  idxOne="8"  idxTwo="37"  coef="-.4139"/><qTerm  idx="-1"  idxOne="8"  idxTwo="39"  coef="1.411"/><qTerm  idx="-1"  idxOne="8"  idxTwo="48"  coef=".5638"/><qTerm  idx="-1"  idxOne="9"  idxTwo="10"  coef="1.2855"/><qTerm  idx="-1"  idxOne="9"  idxTwo="11"  coef="-1.3329"/><qTerm  idx="-1"  idxOne="9"  idxTwo="12"  coef="-1.4094"/><qTerm  idx="-1"  idxOne="9"  idxTwo="15"  coef="-1.5212"/><qTerm  idx="-1"  idxOne="9"  idxTwo="24"  coef=".8699"/><qTerm  idx="-1"  idxOne="9"  idxTwo="28"  coef="-.9346"/><qTerm  idx="-1"  idxOne="9"  idxTwo="36"  coef="-.5723"/><qTerm  idx="-1"  idxOne="9"  idxTwo="38"  coef="2.38e-2"/><qTerm  idx="-1"  idxOne="9"  idxTwo="45"  coef="-.545"/><qTerm  idx="-1"  idxOne="9"  idxTwo="47"  coef=".4564"/><qTerm  idx="-1"  idxOne="10"  idxTwo="10"  coef=".2978"/><qTerm  idx="-1"  idxOne="10"  idxTwo="11"  coef=".3315"/><qTerm  idx="-1"  idxOne="10"  idxTwo="16"  coef=".9773"/><qTerm  idx="-1"  idxOne="10"  idxTwo="24"  coef="-.54"/><qTerm  idx="-1"  idxOne="10"  idxTwo="26"  coef=".6826"/><qTerm  idx="-1"  idxOne="10"  idxTwo="28"  coef="1.8644"/><qTerm  idx="-1"  idxOne="10"  idxTwo="34"  coef=".3532"/><qTerm  idx="-1"  idxOne="10"  idxTwo="40"  coef="-.1559"/><qTerm  idx="-1"  idxOne="10"  idxTwo="46"  coef=".2356"/><qTerm  idx="-1"  idxOne="10"  idxTwo="47"  coef="-.3543"/><qTerm  idx="-1"  idxOne="11"  idxTwo="12"  coef="1.1316"/><qTerm  idx="-1"  idxOne="11"  idxTwo="15"  coef="1.5869"/><qTerm  idx="-1"  idxOne="11"  idxTwo="17"  coef="1.2229"/><qTerm  idx="-1"  idxOne="11"  idxTwo="20"  coef="-1.5663"/><qTerm  idx="-1"  idxOne="11"  idxTwo="24"  coef=".635"/><qTerm  idx="-1"  idxOne="11"  idxTwo="25"  coef="1.0856"/><qTerm  idx="-1"  idxOne="11"  idxTwo="30"  coef="-1.2917"/><qTerm  idx="-1"  idxOne="11"  idxTwo="32"  coef="8.61e-2"/><qTerm  idx="-1"  idxOne="11"  idxTwo="41"  coef="-1.1152"/><qTerm  idx="-1"  idxOne="11"  idxTwo="42"  coef=".3796"/><qTerm  idx="-1"  idxOne="11"  idxTwo="45"  coef="-.8453"/><qTerm  idx="-1"  idxOne="12"  idxTwo="13"  coef="-1.4281"/><qTerm  idx="-1"  idxOne="12"  idxTwo="16"  coef="1.5197"/><qTerm  idx="-1"  idxOne="12"  idxTwo="20"  coef="1.6743"/><qTerm  idx="-1"  idxOne="12"  idxTwo="21"  coef="-1.3356"/><qTerm  idx="-1"  idxOne="12"  idxTwo="26"  coef="-.979"/><qTerm  idx="-1"  idxOne="12"  idxTwo="27"  coef=".463"/><qTerm  idx="-1"  idxOne="12"  idxTwo="29"  coef="-1.1748"/><qTerm  idx="-1"  idxOne="12"  idxTwo="34"  coef="1.4585"/><qTerm  idx="-1"  idxOne="12"  idxTwo="35"  coef="-.7751"/><qTerm  idx="-1"  idxOne="12"  idxTwo="39"  coef="3.1e-3"/><qTerm  idx="-1"  idxOne="13"  idxTwo="25"  coef="-.7476"/><qTerm  idx="-1"  idxOne="13"  idxTwo="28"  coef="-1.2192"/><qTerm  idx="-1"  idxOne="13"  idxTwo="31"  coef="-6.e-2"/><qTerm  idx="-1"  idxOne="13"  idxTwo="35"  coef="-1.939"/><qTerm  idx="-1"  idxOne="13"  idxTwo="36"  coef="-1.2389"/><qTerm  idx="-1"  idxOne="13"  idxTwo="42"  coef="-1.5987"/><qTerm  idx="-1"  idxOne="13"  idxTwo="43"  coef=".4065"/><qTerm  idx="-1"  idxOne="14"  idxTwo="31"  coef="1.0648"/><qTerm  idx="-1"  idxOne="14"  idxTwo="41"  coef="-1.8206"/><qTerm  idx="-1"  idxOne="14"  idxTwo="46"  coef=".6758"/><qTerm  idx="-1"  idxOne="14"  idxTwo="49"  coef="1.3622"/><qTerm  idx="-1"  idxOne="15"  idxTwo="16"  coef="-1.8159"/><qTerm  idx="-1"  idxOne="15"  idxTwo="17"  coef="-.6933"/><qTerm  idx="-1"  idxOne="15"  idxTwo="19"  coef="-.1795"/><qTerm  idx="-1"  idxOne="15"  idxTwo="20"  coef="-.721"/><qTerm  idx="-1"  idxOne="15"  idxTwo="21"  coef=".159"/><qTerm  idx="-1"  idxOne="15"  idxTwo="22"  coef="-1.96"/><qTerm  idx="-1"  idxOne="15"  idxTwo="24"  coef="-.2778"/><qTerm  idx="-1"  idxOne="15"  idxTwo="26"  coef="1.0403"/><qTerm  idx="-1"  idxOne="15"  idxTwo="34"  coef=".8722"/><qTerm  idx="-1"  idxOne="15"  idxTwo="49"  coef="-3.28e-2"/><qTerm  idx="-1"  idxOne="16"  idxTwo="16"  coef=".6139"/><qTerm  idx="-1"  idxOne="16"  idxTwo="23"  coef="-1.8394"/><qTerm  idx="-1"  idxOne="16"  idxTwo="26"  coef="1.4957"/><qTerm  idx="-1"  idxOne="16"  idxTwo="35"  coef=".4115"/><qTerm  idx="-1"  idxOne="16"  idxTwo="39"  coef=".3745"/><qTerm  idx="-1"  idxOne="16"  idxTwo="44"  coef="1.8684"/><qTerm  idx="-1"  idxOne="16"  idxTwo="48"  coef=".769"/><qTerm  idx="-1"  idxOne="17"  idxTwo="18"  coef=".9589"/><qTerm  idx="-1"  idxOne="17"  idxTwo="20"  coef="1.5711"/><qTerm  idx="-1"  idxOne="17"  idxTwo="26"  coef="-.4603"/><qTerm  idx="-1"  idxOne="17"  idxTwo="28"  coef="-.594"/><qTerm  idx="-1"  idxOne="17"  idxTwo="29"  coef="1.9885"/><qTerm  idx="-1"  idxOne="17"  idxTwo="31"  coef=".4724"/><qTerm  idx="-1"  idxOne="17"  idxTwo="32"  coef="-1.7118"/><qTerm  idx="-1"  idxOne="17"  idxTwo="40"  coef="1.3313"/><qTerm  idx="-1"  idxOne="17"  idxTwo="41"  coef="-.9231"/><qTerm  idx="-1"  idxOne="18"  idxTwo="23"  coef=".6976"/><qTerm  idx="-1"  idxOne="18"  idxTwo="25"  coef="1.4986"/><qTerm  idx="-1"  idxOne="18"  idxTwo="27"  coef="1.0283"/><qTerm  idx="-1"  idxOne="18"  idxTwo="33"  coef=".1954"/><qTerm  idx="-1"  idxOne="18"  idxTwo="36"  coef="-1.8665"/><qTerm  idx="-1"  idxOne="18"  idxTwo="42"  coef="1.8038"/><qTerm  idx="-1"  idxOne="18"  idxTwo="45"  coef="-1.5679"/><qTerm  idx="-1"  idxOne="18"  idxTwo="47"  coef="1.6505"/><qTerm  idx="-1"  idxOne="19"  idxTwo="28"  coef="1.0563"/><qTerm  idx="-1"  idxOne="19"  idxTwo="29"  coef="-1.5632"/><qTerm  idx="-1"  idxOne="19"  idxTwo="30"  coef="-1.0443"/><qTerm  idx="-1"  idxOne="19"  idxTwo="31"  coef="-1.6231"/><qTerm  idx="-1"  idxOne="19"  idxTwo="33"  coef="1.5626"/><qTerm  idx="-1"  idxOne="19"  idxTwo="35"  coef=".8082"/><qTerm  idx="-1"  idxOne="19"  idxTwo="38"  coef="1.1486"/><qTerm  idx="-1"  idxOne="19"  idxTwo="43"  coef="-.8364"/><qTerm  idx="-1"  idxOne="19"  idxTwo="46"  coef="-.6476"/><qTerm  idx="-1"  idxOne="19"  idxTwo="49"  coef="-1.0086"/><qTerm  idx="-1"  idxOne="20"  idxTwo="28"  coef=".9727"/><qTerm  idx="-1"  idxOne="20"  idxTwo="34"  coef=".3607"/><qTerm  idx="-1"  idxOne="20"  idxTwo="41"  coef="-1.7859"/><qTerm  idx="-1"  idxOne="20"  idxTwo="47"  coef=".481"/><qTerm  idx="-1"  idxOne="20"  idxTwo="49"  coef="-1.3494"/><qTerm  idx="-1"  idxOne="21"  idxTwo="24"  coef="-1.8384"/><qTerm  idx="-1"  idxOne="21"  idxTwo="26"  coef="-1.7621"/><qTerm  idx="-1"  idxOne="21"  idxTwo="28"  coef="9.46e-2"/><qTerm  idx="-1"  idxOne="21"  idxTwo="30"  coef=".5877"/><qTerm  idx="-1"  idxOne="21"  idxTwo="31"  coef="-1.0049"/><qTerm  idx="-1"  idxOne="21"  idxTwo="32"  coef=".4132"/><qTerm  idx="-1"  idxOne="21"  idxTwo="34"  coef="1.6745"/><qTerm  idx="-1"  idxOne="21"  idxTwo="36"  coef="-.3931"/><qTerm  idx="-1"  idxOne="21"  idxTwo="38"  coef=".5099"/><qTerm  idx="-1"  idxOne="21"  idxTwo="41"  coef="1.6268"/><qTerm  idx="-1"  idxOne="21"  idxTwo="43"  coef=".6756"/><qTerm  idx="-1"  idxOne="22"  idxTwo="30"  coef="-1.4437"/><qTerm  idx="-1"  idxOne="22"  idxTwo="31"  coef=".4557"/><qTerm  idx="-1"  idxOne="22"  idxTwo="32"  coef="-1.2069"/><qTerm  idx="-1"  idxOne="22"  idxTwo="34"  coef="-1.7362"/><qTerm  idx="-1"  idxOne="22"  idxTwo="38"  coef=".5772"/><qTerm  idx="-1"  idxOne="22"  idxTwo="42"  coef="1.0133"/><qTerm  idx="-1"  idxOne="22"  idxTwo="43"  coef="-1.5689"/><qTerm  idx="-1"  idxOne="22"  idxTwo="46"  coef=".7905"/><qTerm  idx="-1"  idxOne="23"  idxTwo="27"  coef="1.2126"/><qTerm  idx="-1"  idxOne="23"  idxTwo="30"  coef="-1.7087"/><qTerm  idx="-1"  idxOne="23"  idxTwo="32"  coef="-.7585"/><qTerm  idx="-1"  idxOne="23"  idxTwo="35"  coef="1.9758"/><qTerm  idx="-1"  idxOne="23"  idxTwo="37"  coef="1.9644"/><qTerm  idx="-1"  idxOne="23"  idxTwo="39"  coef=".6917"/><qTerm  idx="-1"  idxOne="23"  idxTwo="40"  coef="-.339"/><qTerm  idx="-1"  idxOne="23"  idxTwo="42"  coef="-.5341"/><qTerm  idx="-1"  idxOne="23"  idxTwo="43"  coef="-1.2718"/><qTerm  idx="-1"  idxOne="23"  idxTwo="46"  coef="-1.7373"/><qTerm  idx="-1"  idxOne="23"  idxTwo="48"  coef="-.3947"/><qTerm  idx="-1"  idxOne="24"  idxTwo="32"  coef="-1.2482"/><qTerm  idx="-1"  idxOne="24"  idxTwo="34"  coef="-1.9188"/><qTerm  idx="-1"  idxOne="24"  idxTwo="39"  coef=".4859"/><qTerm  idx="-1"  idxOne="25"  idxTwo="29"  coef="1.3579"/><qTerm  idx="-1"  idxOne="25"  idxTwo="45"  coef="-1.3543"/><qTerm  idx="-1"  idxOne="25"  idxTwo="49"  coef="-1.8765"/><qTerm  idx="-1"  idxOne="26"  idxTwo="31"  coef="-1.2781"/><qTerm  idx="-1"  idxOne="26"  idxTwo="32"  coef="1.8232"/><qTerm  idx="-1"  idxOne="26"  idxTwo="33"  coef="1.3683"/><qTerm  idx="-1"  idxOne="26"  idxTwo="40"  coef=".7576"/><qTerm  idx="-1"  idxOne="26"  idxTwo="43"  coef="1.402"/><qTerm  idx="-1"  idxOne="26"  idxTwo="48"  coef="-.1641"/><qTerm  idx="-1"  idxOne="26"  idxTwo="49"  coef=".1494"/><qTerm  idx="-1"  idxOne="27"  idxTwo="33"  coef="1.9501"/><qTerm  idx="-1"  idxOne="27"  idxTwo="34"  coef=".2401"/><qTerm  idx="-1"  idxOne="27"  idxTwo="36"  coef="-.3904"/><qTerm  idx="-1"  idxOne="27"  idxTwo="40"  coef=".6705"/><qTerm  idx="-1"  idxOne="27"  idxTwo="42"  coef="-.6317"/><qTerm  idx="-1"  idxOne="27"  idxTwo="48"  coef="1.3798"/><qTerm  idx="-1"  idxOne="28"  idxTwo="29"  coef="1.6073"/><qTerm  idx="-1"  idxOne="28"  idxTwo="33"  coef="-.1642"/><qTerm  idx="-1"  idxOne="28"  idxTwo="34"  coef="1.4225"/><qTerm  idx="-1"  idxOne="28"  idxTwo="36"  coef=".7328"/><qTerm  idx="-1"  idxOne="28"  idxTwo="40"  coef="-.6654"/><qTerm  idx="-1"  idxOne="28"  idxTwo="43"  coef="1.3258"/><qTerm  idx="-1"  idxOne="28"  idxTwo="44"  coef="3.82e-2"/><qTerm  idx="-1"  idxOne="28"  idxTwo="46"  coef="-1.1484"/><qTerm  idx="-1"  idxOne="29"  idxTwo="33"  coef="1.0915"/><qTerm  idx="-1"  idxOne="29"  idxTwo="37"  coef="1.4304"/><qTerm  idx="-1"  idxOne="29"  idxTwo="38"  coef=".4828"/><qTerm  idx="-1"  idxOne="30"  idxTwo="38"  coef="-1.3272"/><qTerm  idx="-1"  idxOne="30"  idxTwo="46"  coef="-.6883"/><qTerm  idx="-1"  idxOne="31"  idxTwo="32"  coef="1.81e-2"/><qTerm  idx="-1"  idxOne="31"  idxTwo="33"  coef=".6547"/><qTerm  idx="-1"  idxOne="31"  idxTwo="34"  coef="1.2876"/><qTerm  idx="-1"  idxOne="31"  idxTwo="35"  coef=".7556"/><qTerm  idx="-1"  idxOne="31"  idxTwo="38"  coef=".7326"/><qTerm  idx="-1"  idxOne="32"  idxTwo="32"  coef="9.62e-2"/><qTerm  idx="-1"  idxOne="32"  idxTwo="37"  coef="-.8072"/><qTerm  idx="-1"  idxOne="32"  idxTwo="39"  coef="-1.2282"/><qTerm  idx="-1"  idxOne="32"  idxTwo="40"  coef="-1.0064"/><qTerm  idx="-1"  idxOne="32"  idxTwo="41"  coef="-1.7286"/><qTerm  idx="-1"  idxOne="32"  idxTwo="46"  coef="-.4633"/><qTerm  idx="-1"  idxOne="33"  idxTwo="35"  coef="-1.2977"/><qTerm  idx="-1"  idxOne="33"  idxTwo="37"  coef=".3032"/><qTerm  idx="-1"  idxOne="33"  idxTwo="42"  coef="-1.9892"/><qTerm  idx="-1"  idxOne="33"  idxTwo="43"  coef=".7669"/><qTerm  idx="-1"  idxOne="34"  idxTwo="36"  coef="1.8554"/><qTerm  idx="-1"  idxOne="34"  idxTwo="38"  coef="1.7806"/><qTerm  idx="-1"  idxOne="34"  idxTwo="39"  coef="1.5656"/><qTerm  idx="-1"  idxOne="34"  idxTwo="41"  coef="-1.4976"/><qTerm  idx="-1"  idxOne="34"  idxTwo="43"  coef="-.246"/><qTerm  idx="-1"  idxOne="34"  idxTwo="45"  coef="1.5728"/><qTerm  idx="-1"  idxOne="34"  idxTwo="46"  coef="-.6917"/><qTerm  idx="-1"  idxOne="35"  idxTwo="39"  coef="-1.1333"/><qTerm  idx="-1"  idxOne="35"  idxTwo="43"  coef=".7403"/><qTerm  idx="-1"  idxOne="35"  idxTwo="44"  coef="-.6024"/><qTerm  idx="-1"  idxOne="35"  idxTwo="46"  coef="1.6535"/><qTerm  idx="-1"  idxOne="35"  idxTwo="47"  coef="-1.01e-2"/><qTerm  idx="-1"  idxOne="36"  idxTwo="40"  coef="-1.3099"/><qTerm  idx="-1"  idxOne="36"  idxTwo="41"  coef="-.4307"/><qTerm  idx="-1"  idxOne="36"  idxTwo="42"  coef="1.1956"/><qTerm  idx="-1"  idxOne="36"  idxTwo="43"  coef="8.6e-3"/><qTerm  idx="-1"  idxOne="36"  idxTwo="46"  coef="-4.72e-2"/><qTerm  idx="-1"  idxOne="37"  idxTwo="39"  coef=".6997"/><qTerm  idx="-1"  idxOne="37"  idxTwo="40"  coef="-.7819"/><qTerm  idx="-1"  idxOne="37"  idxTwo="47"  coef=".9008"/><qTerm  idx="-1"  idxOne="38"  idxTwo="39"  coef="-1.8066"/><qTerm  idx="-1"  idxOne="38"  idxTwo="42"  coef=".3534"/><qTerm  idx="-1"  idxOne="38"  idxTwo="43"  coef="-.4006"/><qTerm  idx="-1"  idxOne="38"  idxTwo="45"  coef="-5.76e-2"/><qTerm  idx="-1"  idxOne="39"  idxTwo="40"  coef="-1.0082"/><qTerm  idx="-1"  idxOne="39"  idxTwo="41"  coef="1.3278"/><qTerm  idx="-1"  idxOne="39"  idxTwo="49"  coef="-.1287"/><qTerm  idx="-1"  idxOne="40"  idxTwo="41"  coef="-.7859"/><qTerm  idx="-1"  idxOne="40"  idxTwo="47"  coef="-1.9447"/><qTerm  idx="-1"  idxOne="40"  idxTwo="48"  coef="1.1612"/><qTerm  idx="-1"  idxOne="41"  idxTwo="44"  coef="-.3343"/><qTerm  idx="-1"  idxOne="41"  idxTwo="49"  coef="-.5208"/><qTerm  idx="-1"  idxOne="42"  idxTwo="44"  coef="-.6494"/><qTerm  idx="-1"  idxOne="42"  idxTwo="49"  coef="1.5628"/><qTerm  idx="-1"  idxOne="43"  idxTwo="44"  coef="-.9006"/><qTerm  idx="-1"  idxOne="44"  idxTwo="45"  coef="-.7978"/><qTerm  idx="-1"  idxOne="44"  idxTwo="49"  coef="-.5133"/><qTerm  idx="-1"  idxOne="45"  idxTwo="47"  coef="-.7741"/><qTerm  idx="-1"  idxOne="45"  idxTwo="49"  coef="-1.3413"/><qTerm  idx="-1"  idxOne="48"  idxTwo="49"  coef="1.4015"/></quadraticCoefficients></instanceData></osil>
